986360
986360
975988
975988
975988
975988
975988
962900
962900
959855
947625
944674
944674
940407
934715
933914
924879
924879
924879
915555
915555
899810
899810
899810
891256
886758
886758
886758
886758
886758
886758
886758
885821
875439
875439
875439
866299
866299
866299
865724
865724
865724
865724
853794
853794
853794
852762
852762
852762
841219
836746
836746
836746
832168
832168
832168
828640
820371
820371
820371
815366
815366
815366
815366
815366
814876
812180
812180
812180
812180
812180
798631
798631
793529
793529
793529
793529
793341
793341
785809
785809
785809
785809
785809
785809
776340
776340
776340
776340
776340
775292
770330
770330
770330
767202
760309
760309
760309
757436
757436
